(set-logic UF)
(declare-sort Set 0)
(declare-sort Elem 0)
(declare-fun member (Elem Set) Bool)
(declare-fun subset (Set Set) Bool)
(declare-fun seteq (Set Set) Bool)
(declare-fun union (Set Set) Set)
(declare-fun intersection (Set Set) Set)
(declare-fun difference (Set Set) Set)
(declare-fun a () Set)
(declare-fun b () Set)
(declare-fun d () Set)
(assert (not (=> (forall ((?x Elem) (?s1 Set) (?s2 Set)) (= (and (member ?x ?s1) (not (member ?x ?s2))) (member ?x (difference ?s1 ?s2)))) (= (and (member (choice ((?x Elem)) (not (or (not (member ?x (difference b a))) (member ?x (difference b d))))) b) (not (member (choice ((?x Elem)) (not (or (not (member ?x (difference b a))) (member ?x (difference b d))))) d))) (member (choice ((?x Elem)) (not (or (not (member ?x (difference b a))) (member ?x (difference b d))))) (difference b d))))))
(assert (not (not (= (and (member (choice ((?x Elem)) (not (or (not (member ?x (difference b a))) (member ?x (difference b d))))) b) (not (member (choice ((?x Elem)) (not (or (not (member ?x (difference b a))) (member ?x (difference b d))))) d))) (member (choice ((?x Elem)) (not (or (not (member ?x (difference b a))) (member ?x (difference b d))))) (difference b d))))))
(check-sat)
(exit)
